n = 6;
rank =    [8,5,5,4,2,2];
ability = [0,1,0,1,0,0];
m = 5; 
beauty =  [1,5,3,8,8];
speed =   [6,4,5,4,4];

enjoy = [| 3,4,5,7,3
         | 1,6,3,4,8
         | 2,3,4,3,3
         | 9,6,2,3,4
         | -1,-1,3,3,3
         | 4,4,4,4,4 |];
